15 4 
6026	6026	6026	6026	
773	928	931	
923	860	887	
841	873	918	
119	950	1030	
736	459	474	
87	208	221	
617	465	475	
77	455	484	
642	759	785	
826	135	136	
603	54	57	
391	610	622	
437	796	830	
476	211	220	
542	272	293	
